p tw 119 459
1 87
1 88
1 89
2 5
2 6
2 8
2 10
2 11
3 87
3 88
3 89
4 5
4 6
4 87
4 88
5 6
5 7
5 8
5 87
5 88
6 7
6 8
6 10
6 11
6 87
6 88
7 8
8 10
8 11
8 13
8 14
8 87
8 88
8 92
9 12
9 13
9 15
9 90
9 119
12 13
12 15
12 119
13 14
13 15
13 92
13 119
14 17
14 87
14 88
14 91
14 92
15 117
15 118
15 119
16 17
16 18
16 90
16 119
17 18
17 88
17 90
17 92
17 119
18 90
18 117
18 118
18 119
19 20
19 46
19 49
19 51
19 52
19 55
19 56
19 57
19 58
19 59
19 60
19 61
19 62
19 63
19 64
19 65
19 66
19 68
19 69
19 70
19 71
19 72
19 74
19 75
19 76
19 77
19 78
19 79
19 80
19 81
19 82
19 83
19 84
19 85
19 86
19 91
19 92
19 93
19 94
19 95
19 96
19 97
19 98
19 99
19 100
19 101
19 102
19 103
19 104
19 105
19 106
19 107
19 108
19 109
19 110
19 111
19 112
19 113
19 114
19 115
19 116
19 117
19 118
19 119
20 21
20 26
20 33
20 36
20 46
20 49
20 51
20 52
21 22
21 26
21 27
21 28
21 29
21 31
21 33
21 36
21 102
21 118
22 23
22 24
22 25
22 26
22 27
22 28
22 29
22 30
22 31
22 32
22 34
22 35
22 38
22 39
22 41
22 42
22 44
22 45
22 48
22 50
22 53
22 92
22 93
22 94
22 95
22 96
22 97
22 98
22 99
22 100
22 101
22 102
22 103
22 104
22 105
22 106
22 108
22 109
22 110
22 111
22 112
22 113
22 114
22 115
22 116
22 117
22 118
22 119
23 24
23 25
23 107
23 108
23 109
23 110
23 119
24 25
24 111
24 112
24 113
24 114
24 119
25 115
25 116
25 117
25 118
25 119
26 27
26 33
26 36
26 94
26 110
27 28
27 29
27 31
27 33
27 34
27 35
27 37
27 38
27 39
27 40
27 41
27 42
27 43
27 44
27 45
27 48
27 50
27 53
27 54
27 92
27 93
27 94
27 108
27 109
27 110
28 29
28 31
28 36
28 43
28 49
28 50
28 101
28 117
29 30
29 31
29 99
29 115
30 36
30 40
30 47
30 48
30 99
30 100
30 115
30 116
31 32
31 105
31 106
32 103
32 104
32 105
32 106
32 119
33 34
33 35
33 36
33 37
33 40
33 43
34 35
34 98
34 114
35 106
36 37
36 40
36 43
36 47
36 48
36 49
36 50
36 54
37 38
37 39
37 40
37 43
38 39
38 95
38 111
39 103
39 119
40 41
40 42
40 43
40 47
40 48
41 42
41 96
41 112
42 104
43 44
43 45
43 49
43 50
44 45
44 97
44 113
45 105
46 47
46 51
46 52
47 48
48 92
48 108
49 50
49 52
50 93
50 109
51 52
51 55
51 56
51 57
51 58
51 59
51 60
51 61
51 62
51 63
51 64
51 65
51 66
51 67
51 68
51 69
51 70
51 71
51 72
51 73
51 74
51 75
51 76
51 77
51 78
51 79
51 80
51 81
51 82
51 83
51 84
51 85
51 86
51 91
53 54
55 118
55 119
56 116
56 117
57 114
57 115
58 112
58 113
59 110
59 111
60 108
60 109
61 106
61 107
62 104
62 105
63 102
63 103
64 100
64 101
65 98
65 99
66 96
66 97
67 68
67 69
68 94
68 95
69 72
69 92
69 93
70 91
71 73
71 91
71 92
72 91
73 74
74 93
74 94
75 95
75 96
76 97
76 98
77 99
77 100
78 101
78 102
79 103
79 104
80 105
80 106
81 107
81 108
82 109
82 110
83 111
83 112
84 113
84 114
85 115
85 116
86 117
86 118
87 88
87 89
87 91
88 89
88 92
89 93
90 119
93 94
95 96
97 98
99 100
101 102
103 104
103 119
104 119
105 106
107 108
107 109
107 110
108 109
108 110
109 110
111 112
111 113
111 114
112 113
112 114
113 114
115 116
115 117
115 118
116 117
116 118
117 118
